unsat
(:SPACER-cluster-out-of-gas           1051
 :SPACER-conj                         318
 :SPACER-inductive-gen                1197
 :SPACER-inductive-gen-weaken-fail    1305
 :SPACER-inductive-gen-weaken-success 73
 :SPACER-inductive-level              181
 :SPACER-max-depth                    181
 :SPACER-max-query-lvl                181
 :SPACER-non-local-gen                1949
 :SPACER-num-active-lemmas            220
 :SPACER-num-cant-abstract            2
 :SPACER-num-ctp-blocked              20952
 :SPACER-num-invariants               194
 :SPACER-num-is_invariant             74299
 :SPACER-num-lemma-jumped             1017
 :SPACER-num-lemmas                   2451
 :SPACER-num-non-lin                  3
 :SPACER-num-pobs                     1306
 :SPACER-num-propagations             51813
 :SPACER-num-queries                  1473
 :SPACER-num-reach-queries            230
 :SPACER-num-reuse-reach-facts        230
 :SPACER-subsume-failed               45
 :SPACER-subsume-pob                  460
 :SPACER-subsume-success              1151
 :added-eqs                           340898
 :arith-assert-diseq                  1391940
 :arith-assert-lower                  3530254
 :arith-assert-upper                  4659278
 :arith-bound-prop                    14740
 :arith-conflicts                     1126
 :arith-eq-adapter                    44760
 :arith-fixed-eqs                     66384
 :arith-num-rows                      154
 :arith-offset-eqs                    41570
 :arith-pivots                        23942
 :arith-row-summations                363388
 :arith-tableau-max-columns           452
 :arith-tableau-max-rows              154
 :conflicts                           128282
 :decisions                           3990850
 :del-clause                          127216
 :final-checks                        7662
 :iuc_solver.num_proxies              1270
 :max-memory                          1090.21
 :memory                              986.54
 :minimized-lits                      2306
 :mk-bool-var                         139250
 :mk-clause                           364932
 :num-allocs                          17542725199776.00
 :num-checks                          125972
 :pool_solver.checks                  62986
 :pool_solver.checks.sat              3370
 :pool_solver.checks.undef            461
 :propagations                        38246282
 :rlimit-count                        114185826
 :time                                299.73
 :time.iuc_solver.get_iuc             5.49
 :time.iuc_solver.get_iuc.hyp_reduce1 1.02
 :time.iuc_solver.get_iuc.hyp_reduce2 2.65
 :time.iuc_solver.get_iuc.learn_core  0.57
 :time.pool_solver.proof              1.54
 :time.pool_solver.smt.total          260.93
 :time.pool_solver.smt.total.sat      50.71
 :time.pool_solver.smt.total.undef    36.01
 :time.spacer.ctp                     8.11
 :time.spacer.init_rules              0.00
 :time.spacer.mbp                     0.43
 :time.spacer.solve                   299.30
 :time.spacer.solve.propagate         216.44
 :time.spacer.solve.reach             82.86
 :time.spacer.solve.reach.children    2.98
 :time.spacer.solve.reach.cluster     6.09
 :time.spacer.solve.reach.gen.global  7.14
 :time.spacer.solve.reach.gen.ind     4.81
 :time.spacer.solve.reach.is-reach    1.10)
(:max-memory   1090.21
 :memory       986.54
 :num-allocs   17542725199776.00
 :rlimit-count 114185826
 :time         299.73
 :total-time   299.73)
timeout
